============================[ Problem Statistics ]=============================|                                                                             ||  Number of variables:          4242                                         ||  Number of clauses:            9844                                         ||  Parse time:                   0.24 s                                       ||                                                                             |============================[ Search Statistics ]==============================| Conflicts |          ORIGINAL         |          LEARNT          | Progress ||           |    Vars  Clauses Literals |    Limit  Clauses Lit/Cl |          |===============================================================================|       100 |    1591     6049   371360 |     2217      100     53 | 62.501 % |===============================================================================restarts              : 2conflicts             : 145            (360 /sec)decisions             : 317            (0.00 % random) (787 /sec)propagations          : 9947           (24682 /sec)conflict literals     : 9254           (95.45 % deleted)CPU time              : 0.403 sSATISFIABLE